&bands
outdir = './outdir'
prefix = 'P'
filband = 'P.bands.dat'
/
