&control
    calculation = 'scf'
    prefix = 'bp-hfO2'
    pseudo_dir = './'
/
&system
    ibrav=0,
    nat=3, ntyp=2,
    ecutwfc=40.0
/
&electrons
/
ATOMIC_SPECIES
 Hf 178.49   Hf-sp.oncvpsp.upf'
 P  30.97    P.pbe-n-rrkjus_psl.1.0.0.UPF'
 O  16.00    O.pbe-n-kjpaw_psl.0.1.UPF'
ATOMIC_POSITIONS (alat)
 Hf 0.00 0.00 0.00
 P  1.00 1.00 1.00
 O  0.50 0.50 0.50   
K_POINTS (automatic)
  6 6 6 0 0 0
